min: 82 x1 + 934 x2 + 377 x3 + 869 x4 + 876 x5 + 12 x6 + 324 x7 + 105 x8 + 472 x9 + 959 x10 + 239 x11 + 656 x12 + 401 x13 + 530 x14 + 280 x15 + 137 x16 + 811 x17 + 147 x18 + 44 x19 + 909 x20 + 107 x21 + 101 x22 + 86 x23 + 529 x24 + 689 x25 + 775 x26 + 854 x27 + 533 x28 + 486 x29 + 31 x30 + 49 x31 + 513 x32 + 785 x33 + 143 x34 + 103 x35 + 594 x36 + 910 x37 + 248 x38 + 373 x39 + 897 x40 + 979 x41 + 76 x42 + 152 x43 + 877 x44 + 451 x45 + 361 x46 + 823 x47 + 371 x48 + 230 x49 + 449 x50 + 375 x51 + 211 x52 + 673 x53 + 676 x54 + 444 x55 + 633 x56 + 729 x57 + 425 x58 + 659 x59 + 369 x60 + 222 x61 + 852 x62 + 539 x63 + 385 x64 + 440 x65 + 199 x66 + 478 x67 + 446 x68 + 722 x69 + 676 x70 + 733 x71 + 794 x72 + 283 x73 + 475 x74 + 414 x75 + 357 x76 + 961 x77 + 962 x78 + 638 x79 + 397 x80 + 952 x81 + 482 x82 + 296 x83 + 794 x84 + 114 x85 + 14 x86 + 31 x87 + 72 x88 + 750 x89 + 794 x90 + 953 x91 + 957 x92 + 691 x93 + 646 x94 + 337 x95 + 157 x96 + 196 x97 + 495 x98 + 567 x99 + 452 x100;

r1: x92 + x14 + x75 + x55 + x82 + x88 + x12 + x89 >= 1;
r2: x52 + x38 + x95 + x83 + x57 + x61 + x20 >= 1;
r3: x46 + x6 + x48 + x53 + x83 + x37 >= 1;
r4: x83 >= 1;
r5: x45 + x59 >= 1;
r6: x70 + x37 + x5 >= 1;
r7: x3 + x9 + x61 + x95 + x27 + x50 + x41 + x85 >= 1;
r8: x18 + x45 >= 1;
r9: x43 + x81 + x17 >= 1;
r10: x42 + x54 + x37 >= 1;
r11: x29 + x42 + x27 + x82 + x66 + x28 + x55 + x18 >= 1;
r12: x19 + x26 + x63 + x49 + x22 + x95 + x59 >= 1;
r13: x37 + x76 + x29 + x58 + x32 + x80 + x34 >= 1;
r14: x24 + x99 + x37 + x33 + x65 + x42 + x78 + x93 >= 1;
r15: x40 + x21 + x99 + x94 + x17 >= 1;
r16: x12 + x96 + x56 + x72 >= 1;
r17: x92 + x75 + x48 + x47 >= 1;
r18: x38 + x91 + x65 + x56 + x50 + x17 + x9 + x54 >= 1;
r19: x29 + x89 + x33 + x48 + x13 + x73 >= 1;
r20: x28 + x74 + x87 >= 1;
r21: x13 + x87 + x84 + x62 + x73 >= 1;
r22: x59 + x25 + x87 + x50 + x48 >= 1;
r23: x21 + x14 + x86 >= 1;
r24: x99 + x45 + x33 + x86 + x85 + x62 + x3 >= 1;
r25: x86 + x99 + x100 + x82 + x38 + x15 >= 1;
r26: x90 + x26 + x18 + x77 >= 1;
r27: x81 + x86 + x87 >= 1;
r28: x86 + x88 + x59 + x21 + x55 + x81 + x2 >= 1;
r29: x64 + x5 + x15 + x4 + x39 + x60 + x7 >= 1;
r30: x23 + x6 + x64 + x13 + x71 + x73 + x26 >= 1;
r31: x4 + x36 + x76 + x26 + x8 + x11 + x33 + x45 >= 1;
r32: x36 + x51 + x82 + x80 + x39 + x62 >= 1;
r33: x52 + x73 + x44 >= 1;
r34: x6 + x21 + x38 >= 1;
r35: x37 + x10 + x33 >= 1;
r36: x12 >= 1;
r37: x57 + x17 + x47 + x3 + x87 + x53 >= 1;
r38: x54 + x90 + x35 + x14 >= 1;
r39: x3 + x98 + x57 + x23 + x11 + x89 + x46 + x52 >= 1;
r40: x44 + x1 + x15 + x95 >= 1;
r41: x27 + x7 + x29 + x48 + x94 + x45 + x85 + x40 >= 1;
r42: x6 + x39 + x20 + x89 + x43 + x73 + x81 + x95 >= 1;
r43: x45 >= 1;
r44: x30 + x89 + x24 + x4 + x16 + x61 >= 1;
r45: x64 + x36 + x55 + x99 + x90 + x40 + x24 >= 1;
r46: x12 + x15 + x21 + x66 + x25 + x37 + x94 >= 1;
r47: x59 + x73 + x6 + x84 + x44 + x60 >= 1;
r48: x45 + x93 + x66 + x48 + x46 + x100 >= 1;
r49: x45 + x44 + x38 + x46 + x14 >= 1;
r50: x23 + x61 + x35 + x67 >= 1;
r51: x26 + x89 >= 1;
r52: x68 + x37 + x28 + x46 + x9 + x82 + x45 >= 1;
r53: x47 + x67 + x51 + x88 + x32 >= 1;
r54: x30 + x44 >= 1;
r55: x29 + x35 + x38 + x94 >= 1;
r56: x27 + x26 >= 1;
r57: x19 + x25 + x46 + x81 + x54 + x94 + x56 + x23 >= 1;
r58: x96 >= 1;
r59: x95 + x46 + x24 >= 1;
r60: x4 + x88 >= 1;
r61: x28 + x69 + x52 + x25 + x48 + x10 + x73 + x100 >= 1;
r62: x34 + x69 + x56 + x48 + x3 + x25 >= 1;
r63: x42 + x1 + x55 + x91 + x72 >= 1;
r64: x30 + x11 >= 1;
r65: x45 + x63 + x87 + x30 + x72 >= 1;
r66: x55 + x2 + x7 + x16 >= 1;
r67: x18 + x65 + x37 >= 1;
r68: x46 + x55 + x16 + x11 + x36 + x4 >= 1;
r69: x7 + x10 + x44 + x94 + x15 >= 1;
r70: x4 + x37 + x78 + x55 + x48 + x36 + x39 + x91 >= 1;
r71: x83 + x26 + x44 + x69 + x31 + x71 + x29 >= 1;
r72: x54 + x77 + x90 + x44 + x30 >= 1;
r73: x70 + x77 + x62 + x87 + x27 + x97 >= 1;
r74: x19 + x14 + x45 + x98 >= 1;
r75: x22 + x34 + x16 + x32 + x53 + x64 + x82 >= 1;
r76: x89 + x86 + x33 + x13 >= 1;
r77: x17 + x61 >= 1;
r78: x52 + x66 + x85 + x49 + x83 >= 1;
r79: x38 + x30 + x48 + x3 + x35 >= 1;
r80: x41 + x54 + x76 + x83 >= 1;
r81: x52 + x38 + x1 + x27 + x37 + x100 + x62 >= 1;
r82: x36 + x75 + x73 + x51 >= 1;
r83: x43 + x88 >= 1;
r84: x44 + x95 + x15 + x28 + x79 + x91 + x61 >= 1;
r85: x38 + x13 + x26 + x97 >= 1;
r86: x50 + x18 >= 1;
r87: x59 + x13 + x31 + x10 + x28 + x32 >= 1;
r88: x87 + x14 + x21 + x42 + x15 + x77 + x4 >= 1;
r89: x17 + x48 + x46 + x54 + x62 >= 1;
r90: x68 + x59 + x94 >= 1;
r91: x2 + x40 + x64 >= 1;
r92: x3 + x8 >= 1;
r93: x30 + x17 + x21 + x60 + x27 + x61 + x93 + x72 >= 1;
r94: x100 + x51 >= 1;
r95: x79 + x12 + x67 >= 1;
r96: x92 + x48 + x25 + x27 + x35 + x34 + x20 >= 1;
r97: x39 + x15 + x98 + x42 >= 1;
r98: x8 + x85 + x81 + x39 + x17 + x71 + x54 + x93 >= 1;
r99: x86 >= 1;
r100: x52 >= 1;
r101: x19 + x90 + x78 >= 1;
r102: x49 + x12 + x15 + x37 + x23 + x42 + x68 >= 1;
r103: x90 + x53 >= 1;
r104: x6 + x68 >= 1;
r105: x69 + x1 + x82 + x86 + x16 + x75 + x53 + x2 >= 1;
r106: x11 + x9 + x43 + x15 + x22 + x3 + x61 + x19 >= 1;
r107: x34 + x18 + x82 + x95 + x75 + x93 + x33 >= 1;
r108: x98 + x20 + x89 + x65 + x44 + x75 >= 1;
r109: x36 + x100 + x49 + x3 + x84 + x59 + x53 + x38 >= 1;
r110: x58 + x42 + x80 + x7 + x48 >= 1;
r111: x70 + x3 + x65 + x86 + x66 + x52 + x20 + x81 >= 1;
r112: x57 + x88 + x61 + x85 + x31 + x4 + x19 >= 1;
r113: x38 + x47 >= 1;
r114: x63 + x17 + x79 + x1 + x15 >= 1;
r115: x44 >= 1;
r116: x81 + x8 >= 1;
r117: x92 >= 1;
r118: x12 + x77 + x58 + x57 + x69 + x41 >= 1;
r119: x4 + x86 + x72 + x46 >= 1;
r120: x89 + x5 + x30 + x21 >= 1;
r121: x12 + x63 >= 1;
r122: x48 >= 1;
r123: x78 + x62 + x51 + x63 + x98 + x86 >= 1;
r124: x66 + x11 + x28 + x27 + x41 + x97 + x73 + x89 >= 1;
r125: x58 + x59 + x77 + x88 + x93 + x1 >= 1;
r126: x34 + x95 + x31 + x35 + x73 + x24 + x98 + x97 >= 1;
r127: x66 + x28 + x54 + x17 >= 1;
r128: x7 + x33 + x44 + x24 + x96 + x61 + x91 >= 1;
r129: x92 + x5 + x81 + x15 + x94 + x19 + x3 >= 1;
r130: x50 + x8 + x73 + x39 + x40 >= 1;
r131: x28 >= 1;
r132: x62 + x64 + x100 + x98 + x49 >= 1;
r133: x44 + x4 + x95 + x64 >= 1;
r134: x87 + x40 + x58 + x55 + x98 >= 1;
r135: x85 + x44 + x23 + x49 + x26 >= 1;
r136: x81 + x9 + x44 + x20 + x84 + x91 >= 1;
r137: x88 + x51 + x4 + x76 + x28 + x44 + x41 >= 1;
r138: x81 + x54 + x46 >= 1;
r139: x75 + x76 + x74 + x26 + x54 >= 1;
r140: x49 >= 1;
r141: x38 + x28 + x27 + x75 + x76 + x5 + x18 >= 1;
r142: x54 + x35 + x19 + x81 + x10 + x78 + x89 + x62 >= 1;
r143: x72 + x70 + x82 + x93 + x91 + x23 + x62 >= 1;
r144: x99 + x29 + x13 + x67 + x68 + x45 + x47 >= 1;
r145: x97 + x85 + x71 + x74 + x67 >= 1;
r146: x78 >= 1;
r147: x7 + x94 + x46 >= 1;
r148: x82 + x23 >= 1;
r149: x74 + x89 + x12 + x53 + x31 + x45 >= 1;
r150: x2 >= 1;
r151: x27 + x98 + x26 + x16 >= 1;
r152: x78 + x93 + x58 + x68 + x76 + x56 >= 1;
r153: x41 >= 1;
r154: x99 + x11 + x32 >= 1;
r155: x84 + x33 + x42 + x63 >= 1;
r156: x72 + x77 + x80 + x15 + x46 >= 1;
r157: x26 + x63 + x36 >= 1;
r158: x44 + x59 >= 1;
r159: x81 >= 1;
r160: x35 + x65 + x26 + x66 + x32 + x42 >= 1;
r161: x9 >= 1;
r162: x85 + x99 + x47 >= 1;
r163: x14 + x11 + x47 + x53 + x19 + x96 + x78 >= 1;
r164: x97 + x94 + x70 + x16 + x90 >= 1;
r165: x69 + x10 + x68 + x37 + x72 + x56 + x18 >= 1;
r166: x41 + x16 + x35 >= 1;
r167: x19 + x95 + x33 + x71 + x58 >= 1;
r168: x1 + x21 + x20 + x57 + x30 >= 1;
r169: x79 + x56 + x69 + x41 + x29 >= 1;
r170: x90 + x42 + x33 + x60 + x45 + x43 + x40 + x69 >= 1;
r171: x45 >= 1;
r172: x75 + x38 + x68 >= 1;
r173: x51 + x84 + x94 + x10 + x54 + x70 + x52 >= 1;
r174: x73 + x80 + x20 + x92 + x26 >= 1;
r175: x8 + x55 + x39 + x50 + x38 + x80 + x10 >= 1;
r176: x65 + x75 + x23 + x7 + x66 + x25 + x58 + x13 >= 1;
r177: x66 + x36 + x32 + x89 >= 1;
r178: x65 + x70 + x42 + x51 + x78 + x8 + x4 + x17 >= 1;
r179: x66 + x44 + x39 + x90 + x98 + x43 + x35 + x54 >= 1;
r180: x90 + x12 + x86 + x66 >= 1;
r181: x91 + x70 + x77 + x36 + x2 + x86 + x63 >= 1;
r182: x1 + x76 + x54 + x37 + x4 + x52 + x8 >= 1;
r183: x15 >= 1;
r184: x41 + x29 + x44 >= 1;
r185: x67 + x25 >= 1;
r186: x15 + x28 + x58 + x65 >= 1;
r187: x8 + x96 + x19 + x87 + x56 + x7 >= 1;
r188: x64 + x69 + x98 + x2 + x59 + x36 + x35 + x37 >= 1;
r189: x73 + x1 + x91 + x92 + x25 + x64 + x90 + x70 >= 1;
r190: x53 + x39 + x91 + x72 >= 1;
r191: x66 + x32 + x9 + x100 + x48 >= 1;
r192: x68 + x4 + x36 >= 1;
r193: x3 + x67 + x65 + x89 + x43 >= 1;
r194: x84 + x76 + x82 + x50 + x59 >= 1;
r195: x26 + x98 + x33 + x36 + x81 + x80 >= 1;
r196: x34 + x9 + x69 + x8 + x17 >= 1;
r197: x44 + x63 + x65 + x9 + x23 + x21 + x33 >= 1;
r198: x40 + x57 + x26 + x19 + x44 + x6 + x8 + x23 >= 1;
r199: x89 + x6 + x14 + x40 >= 1;
r200: x18 >= 1;
r201: x32 + x31 + x25 >= 1;
r202: x41 + x92 + x95 + x100 + x62 + x63 + x69 >= 1;
r203: x22 + x100 + x47 + x41 + x27 + x30 >= 1;
r204: x15 + x9 + x81 + x55 + x100 + x97 + x20 + x34 >= 1;
r205: x24 + x1 + x79 + x56 + x38 + x21 >= 1;
r206: x68 + x89 + x61 + x38 + x46 + x24 + x45 >= 1;
r207: x86 + x89 + x44 >= 1;
r208: x26 + x81 + x54 + x78 >= 1;
r209: x47 + x37 + x17 + x10 + x79 + x62 + x24 >= 1;
r210: x71 + x80 + x60 + x87 + x61 + x85 + x39 >= 1;
r211: x3 + x77 + x95 + x23 + x96 >= 1;
r212: x91 + x34 >= 1;
r213: x53 + x30 + x58 + x72 + x39 >= 1;
r214: x87 + x10 + x83 + x14 >= 1;
r215: x62 + x56 + x19 + x72 + x46 + x68 + x38 + x87 >= 1;
r216: x30 >= 1;
r217: x54 >= 1;
r218: x46 >= 1;
r219: x67 + x30 + x60 + x33 + x23 + x91 >= 1;
r220: x72 + x21 >= 1;
r221: x63 + x64 + x26 + x7 + x54 >= 1;
r222: x55 + x44 + x16 + x77 + x92 + x7 + x90 >= 1;
r223: x53 + x92 + x16 + x84 + x87 >= 1;
r224: x99 + x1 + x13 >= 1;
r225: x11 + x75 >= 1;
r226: x34 + x24 + x88 + x22 >= 1;
r227: x59 + x35 + x33 + x7 + x29 + x4 >= 1;
r228: x36 + x80 + x39 >= 1;
r229: x1 + x69 + x33 >= 1;
r230: x18 + x63 + x10 >= 1;
r231: x97 + x63 + x31 + x64 >= 1;
r232: x92 + x36 + x61 + x34 + x38 >= 1;
r233: x13 + x66 + x52 >= 1;
r234: x43 + x60 + x62 + x14 + x40 + x7 + x52 + x36 >= 1;
r235: x35 + x53 + x56 + x83 + x17 + x3 + x95 >= 1;
r236: x44 + x88 + x15 + x22 + x30 >= 1;
r237: x50 + x44 + x8 >= 1;
r238: x57 >= 1;
r239: x38 + x87 + x71 + x59 + x16 + x26 + x66 >= 1;
r240: x99 >= 1;
r241: x3 + x4 + x62 >= 1;
r242: x98 + x97 + x51 + x68 >= 1;
r243: x91 + x99 + x12 + x81 + x53 + x56 >= 1;
r244: x95 + x54 + x13 + x9 + x29 + x84 + x48 >= 1;
r245: x78 + x82 + x99 + x51 + x1 + x75 + x9 + x60 >= 1;
r246: x97 + x55 + x41 + x52 + x57 + x31 >= 1;
r247: x31 + x83 >= 1;
r248: x94 + x60 + x4 + x10 + x28 + x26 + x36 >= 1;
r249: x35 + x59 >= 1;
r250: x11 + x30 + x83 + x22 + x91 + x49 + x82 >= 1;
r251: x90 >= 1;
r252: x78 + x94 + x51 + x16 >= 1;
r253: x35 + x29 + x27 + x53 + x45 + x89 >= 1;
r254: x14 + x92 >= 1;
r255: x49 + x90 + x59 + x63 + x29 >= 1;
r256: x2 + x12 + x82 + x79 + x57 >= 1;
r257: x74 + x5 + x33 + x53 + x10 + x1 + x15 + x61 >= 1;
r258: x8 + x68 + x33 + x25 + x44 + x11 >= 1;
r259: x60 >= 1;
r260: x61 + x86 + x68 + x51 + x91 + x41 + x33 >= 1;
r261: x94 + x22 + x97 >= 1;
r262: x79 + x95 >= 1;
r263: x6 + x58 >= 1;
r264: x3 + x43 + x89 + x69 + x88 + x33 + x91 >= 1;
r265: x26 >= 1;
r266: x10 + x64 + x74 + x15 + x16 + x87 >= 1;
r267: x39 + x81 + x1 + x42 >= 1;
r268: x8 + x24 + x12 >= 1;
r269: x45 + x58 >= 1;
r270: x50 + x15 + x3 >= 1;
r271: x42 + x64 >= 1;
r272: x32 >= 1;
r273: x45 + x58 + x80 + x5 >= 1;
r274: x29 >= 1;
r275: x40 + x32 + x96 + x85 + x65 + x19 >= 1;
r276: x53 + x100 + x87 + x42 + x88 + x94 + x41 + x27 >= 1;
r277: x44 >= 1;
r278: x66 + x12 + x17 + x33 + x91 >= 1;
r279: x92 + x7 + x69 + x91 >= 1;
r280: x36 + x100 >= 1;
r281: x56 + x58 + x97 + x80 + x51 + x14 >= 1;
r282: x49 + x89 >= 1;
r283: x58 + x39 + x19 >= 1;
r284: x8 + x88 + x62 >= 1;
r285: x21 + x57 + x43 + x88 + x33 >= 1;
r286: x49 + x88 + x32 + x3 + x47 + x46 >= 1;
r287: x71 + x74 + x37 + x50 + x26 + x87 + x100 >= 1;
r288: x93 + x89 + x7 + x22 >= 1;
r289: x10 + x84 + x35 + x51 + x93 >= 1;
r290: x64 + x31 + x97 + x5 + x53 >= 1;
r291: x33 + x96 + x31 + x49 + x28 + x25 >= 1;
r292: x98 + x57 >= 1;
r293: x77 + x45 + x14 >= 1;
r294: x67 >= 1;
r295: x63 + x72 + x8 + x88 >= 1;
r296: x39 + x37 + x22 + x49 + x10 + x90 + x65 + x35 >= 1;
r297: x12 + x46 + x93 + x1 >= 1;
r298: x30 + x48 + x90 >= 1;
r299: x38 >= 1;
r300: x60 + x19 + x13 + x12 + x52 + x26 + x4 >= 1;
r301: x24 + x100 >= 1;
r302: x30 + x100 >= 1;
r303: x2 + x6 + x60 >= 1;
r304: x38 + x11 + x16 + x39 + x15 + x87 + x9 + x32 >= 1;
r305: x50 + x66 + x31 + x83 + x33 + x57 + x14 >= 1;
r306: x74 + x42 + x48 + x71 >= 1;
r307: x17 + x41 + x80 + x84 >= 1;
r308: x75 + x100 + x26 + x98 + x41 + x99 >= 1;
r309: x75 >= 1;
r310: x84 + x88 + x45 + x41 + x83 + x28 + x92 + x17 >= 1;
r311: x69 + x76 >= 1;
r312: x91 + x37 + x13 + x60 + x58 >= 1;
r313: x43 + x36 + x8 + x4 >= 1;
r314: x50 + x38 + x79 + x14 >= 1;
r315: x45 + x50 + x100 + x74 + x3 + x92 >= 1;
r316: x4 + x33 + x30 + x23 >= 1;
r317: x19 + x91 + x5 + x68 + x57 + x33 + x64 + x29 >= 1;
r318: x29 + x8 >= 1;
r319: x36 + x96 + x95 >= 1;
r320: x46 + x47 + x66 + x43 + x14 + x32 >= 1;
r321: x11 >= 1;
r322: x25 + x97 + x12 + x88 + x65 + x16 >= 1;
r323: x76 + x32 >= 1;
r324: x94 + x17 + x30 + x22 + x61 + x21 >= 1;
r325: x29 + x82 + x71 + x84 >= 1;
r326: x2 + x59 >= 1;
r327: x15 + x30 >= 1;
r328: x32 + x46 + x98 + x13 + x62 >= 1;
r329: x64 + x27 >= 1;
r330: x50 + x27 + x9 + x74 >= 1;
r331: x5 + x16 + x52 >= 1;
r332: x3 + x20 + x56 + x62 + x8 + x72 + x5 + x63 >= 1;
r333: x48 + x4 >= 1;
r334: x36 + x7 + x44 >= 1;
r335: x100 + x42 >= 1;
r336: x82 + x17 >= 1;
r337: x56 + x14 + x32 + x70 >= 1;
r338: x30 + x29 + x80 + x98 >= 1;
r339: x76 + x22 + x70 >= 1;
r340: x14 + x66 + x68 + x52 >= 1;
r341: x96 + x62 + x60 + x84 + x37 + x93 + x56 + x43 >= 1;
r342: x38 + x27 + x64 + x47 + x72 + x78 + x52 + x77 >= 1;
r343: x20 + x44 + x18 >= 1;
r344: x73 + x100 + x1 + x81 + x98 + x93 + x25 + x78 >= 1;
r345: x72 + x75 + x26 + x65 + x57 + x32 + x82 + x63 >= 1;
r346: x24 + x34 >= 1;
r347: x58 + x71 + x82 + x44 + x34 + x78 + x12 >= 1;
r348: x17 >= 1;
r349: x81 >= 1;
r350: x58 + x67 + x14 + x25 + x7 >= 1;
r351: x91 + x89 + x28 + x12 + x56 + x99 + x90 >= 1;
r352: x41 + x39 + x98 + x84 + x15 + x60 + x73 >= 1;
r353: x18 + x11 + x98 + x74 + x54 >= 1;
r354: x23 + x82 + x43 + x73 + x95 + x26 + x39 >= 1;
r355: x66 + x40 >= 1;
r356: x83 + x88 + x81 + x73 + x34 + x16 + x22 >= 1;
r357: x14 + x13 >= 1;
r358: x33 >= 1;
r359: x16 + x19 + x57 + x48 + x82 + x91 >= 1;
r360: x72 >= 1;
r361: x14 + x8 >= 1;
r362: x14 + x57 >= 1;
r363: x61 + x57 + x40 + x51 + x16 + x22 + x53 >= 1;
r364: x14 >= 1;
r365: x87 + x34 + x24 + x48 + x2 + x15 + x92 + x23 >= 1;
r366: x15 + x23 + x32 + x12 + x11 >= 1;
r367: x47 + x70 >= 1;
r368: x29 + x28 + x44 + x2 + x42 + x40 + x84 >= 1;
r369: x75 + x70 + x39 + x92 + x54 >= 1;
r370: x27 >= 1;
r371: x95 >= 1;
r372: x88 + x93 + x43 >= 1;
r373: x62 + x59 + x17 + x20 + x83 >= 1;
r374: x76 + x35 + x21 >= 1;
r375: x79 + x48 + x95 >= 1;
r376: x42 >= 1;
r377: x20 >= 1;
r378: x48 + x54 + x74 + x83 + x37 + x98 >= 1;
r379: x89 + x77 + x98 + x94 + x53 + x84 + x11 >= 1;
r380: x11 + x70 + x50 + x35 + x32 >= 1;
r381: x17 + x80 + x2 + x47 + x58 >= 1;
r382: x38 + x42 + x63 + x27 + x85 + x25 + x92 + x23 >= 1;
r383: x94 + x97 + x79 + x55 + x63 + x81 + x71 + x4 >= 1;
r384: x96 + x12 + x4 + x98 + x31 + x45 + x34 + x50 >= 1;
r385: x100 + x70 + x42 + x61 + x47 + x30 + x83 >= 1;
r386: x47 >= 1;
r387: x87 >= 1;
r388: x78 >= 1;
r389: x23 + x12 + x90 + x16 >= 1;
r390: x80 + x22 + x16 + x50 + x34 + x54 + x93 >= 1;
r391: x40 + x82 + x70 + x72 + x31 + x85 + x86 + x14 >= 1;
r392: x45 >= 1;
r393: x86 >= 1;
r394: x58 + x84 + x18 + x40 >= 1;
r395: x75 + x93 + x7 + x88 >= 1;
r396: x93 >= 1;
r397: x62 + x92 + x88 + x73 >= 1;
r398: x97 + x66 + x87 >= 1;
r399: x62 + x34 >= 1;
r400: x19 + x25 + x40 + x6 + x73 + x26 + x56 + x34 >= 1;
r401: x38 + x27 + x77 + x1 + x20 + x3 + x98 >= 1;
r402: x74 + x94 + x23 + x5 + x53 + x71 + x37 + x76 >= 1;
r403: x80 + x29 >= 1;
r404: x48 + x61 >= 1;
r405: x46 + x71 + x30 + x100 >= 1;
r406: x52 + x15 + x63 + x3 + x26 >= 1;
r407: x82 + x89 + x29 + x95 + x77 + x96 >= 1;
r408: x20 + x88 >= 1;
r409: x47 + x34 >= 1;
r410: x53 + x3 + x68 + x50 + x54 >= 1;
r411: x71 + x31 + x98 + x39 + x49 + x35 + x4 + x56 >= 1;
r412: x44 + x40 + x50 + x26 + x91 + x77 >= 1;
r413: x68 + x44 + x96 + x95 >= 1;
r414: x39 + x78 + x57 + x32 + x14 >= 1;
r415: x56 >= 1;
r416: x45 >= 1;
r417: x52 + x83 >= 1;
r418: x90 + x10 >= 1;
r419: x54 + x94 + x67 + x5 + x68 >= 1;
r420: x23 + x17 + x59 >= 1;
r421: x83 + x55 + x39 + x17 + x5 + x76 + x15 + x47 >= 1;
r422: x93 + x28 + x37 + x56 + x99 + x95 + x92 >= 1;
r423: x39 + x73 + x21 + x57 + x38 + x53 >= 1;
r424: x71 + x90 + x17 + x43 + x76 >= 1;
r425: x47 + x85 + x17 + x78 + x84 + x4 + x13 >= 1;
r426: x61 + x25 + x97 >= 1;
r427: x4 + x89 + x17 + x22 + x35 + x91 >= 1;
r428: x22 + x2 + x47 + x84 + x21 >= 1;
r429: x97 + x5 + x47 + x75 + x19 + x32 >= 1;
r430: x32 + x33 >= 1;
r431: x50 + x78 + x72 + x42 + x95 >= 1;
r432: x88 >= 1;
r433: x56 + x27 + x39 + x58 + x78 + x88 >= 1;
r434: x83 + x57 + x13 + x15 + x52 + x82 + x42 + x78 >= 1;
r435: x23 + x20 + x99 + x12 + x7 >= 1;
r436: x86 + x16 + x84 + x59 + x49 + x45 + x8 + x95 >= 1;
r437: x48 >= 1;
r438: x89 + x12 + x6 + x38 + x62 >= 1;
r439: x56 + x59 + x78 + x61 + x10 + x90 >= 1;
r440: x93 >= 1;
r441: x6 + x50 >= 1;
r442: x9 + x30 >= 1;
r443: x93 + x6 >= 1;
r444: x13 + x29 + x91 + x51 >= 1;
r445: x74 >= 1;
r446: x9 + x62 + x38 + x5 + x39 + x57 >= 1;
r447: x38 + x29 + x71 + x59 + x21 >= 1;
r448: x67 + x87 + x27 + x26 + x44 >= 1;
r449: x22 >= 1;
r450: x98 + x15 + x14 + x12 + x68 + x52 + x60 + x87 >= 1;
r451: x34 + x8 + x71 + x20 + x85 + x46 >= 1;
r452: x2 + x5 + x3 + x14 >= 1;
r453: x75 + x48 + x79 >= 1;
r454: x10 + x12 + x70 + x93 >= 1;
r455: x43 + x7 + x99 + x59 + x64 >= 1;
r456: x12 >= 1;
r457: x63 + x53 + x71 + x84 + x81 + x55 + x67 + x33 >= 1;
r458: x33 + x75 + x53 >= 1;
r459: x23 + x50 >= 1;
r460: x36 >= 1;
r461: x92 >= 1;
r462: x1 + x31 + x78 + x18 + x81 + x88 + x4 + x5 >= 1;
r463: x52 + x24 + x10 + x98 + x12 + x9 >= 1;
r464: x75 + x98 + x38 + x47 + x40 + x12 >= 1;
r465: x6 + x26 + x95 + x75 + x42 + x9 + x55 + x77 >= 1;
r466: x82 >= 1;
r467: x79 >= 1;
r468: x17 + x43 + x73 + x7 + x16 >= 1;
r469: x52 + x32 + x18 + x34 + x84 + x15 + x4 + x2 >= 1;
r470: x6 + x79 >= 1;
r471: x49 + x14 + x31 + x55 + x4 >= 1;
r472: x45 + x1 + x44 + x19 + x8 + x65 + x88 >= 1;
r473: x69 + x63 + x58 + x76 + x55 >= 1;
r474: x76 + x69 + x67 + x30 >= 1;
r475: x18 + x8 + x54 + x70 + x52 + x3 + x26 + x83 >= 1;
r476: x20 >= 1;
r477: x31 + x47 + x13 + x24 + x65 + x19 + x77 >= 1;
r478: x4 >= 1;
r479: x100 + x27 >= 1;
r480: x92 + x36 + x35 + x43 + x63 >= 1;
r481: x98 + x80 + x39 + x6 + x4 + x68 >= 1;
r482: x8 + x85 + x76 + x90 + x84 + x94 + x33 + x59 >= 1;
r483: x50 + x82 + x11 + x64 + x4 + x17 + x81 >= 1;
r484: x11 + x77 + x10 + x37 + x9 + x20 + x90 + x87 >= 1;
r485: x19 + x50 >= 1;
r486: x31 + x44 + x11 + x32 + x22 >= 1;
r487: x63 + x60 + x30 + x11 + x85 >= 1;
r488: x5 + x31 + x57 >= 1;
r489: x53 + x41 + x95 + x71 + x35 >= 1;
r490: x34 + x38 + x84 + x14 + x3 + x58 >= 1;
r491: x12 + x92 + x59 + x87 >= 1;
r492: x42 + x33 + x94 + x22 + x52 + x21 + x87 + x72 >= 1;
r493: x96 + x56 + x34 + x26 + x76 + x95 + x15 >= 1;
r494: x89 + x46 >= 1;
r495: x18 + x79 >= 1;
r496: x43 + x39 + x56 + x54 >= 1;
r497: x19 + x96 + x38 >= 1;
r498: x25 + x3 + x4 >= 1;
r499: x33 + x20 + x49 + x32 + x62 + x12 >= 1;
r500: x9 + x81 + x53 + x3 + x45 + x96 + x57 >= 1;
r501: x60 + x54 + x71 >= 1;
r502: x91 + x95 + x76 + x41 + x32 >= 1;
r503: x11 + x99 + x37 >= 1;
r504: x60 + x3 + x68 + x61 >= 1;
r505: x38 + x36 + x43 >= 1;
r506: x81 + x11 >= 1;
r507: x99 + x34 + x37 + x97 + x7 + x35 + x24 >= 1;
r508: x29 + x69 + x94 + x53 + x31 + x45 + x82 + x64 >= 1;
r509: x36 + x34 + x87 + x98 + x25 + x31 + x70 + x89 >= 1;
r510: x35 + x90 + x54 >= 1;
r511: x26 + x20 + x94 + x21 + x66 >= 1;
r512: x22 + x3 >= 1;
r513: x7 + x56 + x73 >= 1;
r514: x20 + x67 + x85 + x44 >= 1;
r515: x75 >= 1;
r516: x67 + x85 + x26 + x54 + x11 + x32 >= 1;
r517: x43 >= 1;
r518: x100 + x18 + x16 >= 1;
r519: x41 >= 1;
r520: x1 + x25 + x76 + x93 + x82 + x30 + x3 >= 1;
r521: x71 + x90 >= 1;
r522: x66 + x87 + x48 + x77 + x38 + x94 + x92 + x89 >= 1;
r523: x73 + x41 >= 1;
r524: x10 + x64 + x27 + x74 + x97 + x7 + x28 + x30 >= 1;
r525: x28 + x4 + x52 + x31 + x34 + x77 >= 1;
r526: x60 + x18 + x53 + x49 + x16 >= 1;
r527: x22 + x70 + x26 >= 1;
r528: x60 + x20 >= 1;
r529: x30 + x98 + x96 + x32 >= 1;
r530: x66 + x38 + x32 + x93 >= 1;
r531: x100 + x99 + x7 >= 1;
r532: x11 + x61 + x14 + x9 >= 1;
r533: x56 + x61 + x40 >= 1;
r534: x54 + x67 + x30 + x52 + x88 + x81 >= 1;
r535: x99 + x24 + x34 >= 1;
r536: x57 + x82 + x54 + x86 >= 1;
r537: x67 >= 1;
r538: x54 + x57 + x51 >= 1;
r539: x37 + x70 + x74 + x29 + x15 >= 1;
r540: x20 + x12 + x62 + x72 + x31 >= 1;
r541: x92 + x3 + x68 + x55 + x77 + x66 >= 1;
r542: x97 + x45 + x14 + x39 >= 1;
r543: x40 + x6 + x38 + x29 + x5 + x11 >= 1;
r544: x9 + x80 + x63 + x52 + x31 + x23 >= 1;
r545: x90 + x32 + x48 + x10 + x6 + x97 + x56 + x47 >= 1;
r546: x35 + x13 + x22 + x95 + x70 + x81 >= 1;
r547: x65 + x56 + x75 + x21 + x11 + x16 + x17 + x97 >= 1;
r548: x93 + x51 + x53 + x86 >= 1;
r549: x78 + x61 + x59 + x81 + x17 + x45 >= 1;
r550: x14 + x27 + x60 + x23 + x85 + x89 + x58 >= 1;

bin x1, x2, x3, x4, x5, x6, x7, x8, x9, x10, x11, x12, x13, x14, x15, x16, x17, x18, x19, x20, x21, x22, x23, x24, x25, x26, x27, x28, x29, x30, x31, x32, x33, x34, x35, x36, x37, x38, x39, x40, x41, x42, x43, x44, x45, x46, x47, x48, x49, x50, x51, x52, x53, x54, x55, x56, x57, x58, x59, x60, x61, x62, x63, x64, x65, x66, x67, x68, x69, x70, x71, x72, x73, x74, x75, x76, x77, x78, x79, x80, x81, x82, x83, x84, x85, x86, x87, x88, x89, x90, x91, x92, x93, x94, x95, x96, x97, x98, x99, x100;
